c File: instances/32_0.10_1.col
c
c Description: Random graph of size 32 vertices and P(0.1) of edges between any two vertices.
p col 32 496
e 1 7
e 1 22
e 1 29
e 2 5
e 2 10
e 4 10
e 4 14
e 4 15
e 4 22
e 4 26
e 5 11
e 5 12
e 5 18
e 5 21
e 5 23
e 5 30
e 6 17
e 6 18
e 8 15
e 8 25
e 9 19
e 10 18
e 10 25
e 10 31
e 11 13
e 11 19
e 11 20
e 12 22
e 12 23
e 12 27
e 12 29
e 13 22
e 13 26
e 13 31
e 14 17
e 14 20
e 16 17
e 16 18
e 16 26
e 16 27
e 17 22
e 17 29
e 22 23
e 22 28
e 23 26
e 25 26
e 25 27
e 27 28
e 27 30